1565 1411 1359 1287 1215 1097 1071 1040 973 918 887 867 823 817 798 761 746 735 723 708 692 678 676 665 662 648 645 640 636 630 629 626 626 625 622 622 620 609 609 609 607 607 607 607 607 607 607 607 607 607 607 607 607 607 607 607 607 607 607 607 607 607 607 607 607 607 607 607 607 607 607 607 607 607 607 607 607 607 607 607 607 607 607 607 607 607 607 607 607 607 607 607 607 607 607 607 607 607 607 607 607 607 607 607 607 607 607 607 607 607 607 607 607 607 607 607 607 607 607 607 607 607 607 607 607 607 607 607 607 607 607 605 605 605 605 605 605 605 605 605 605 605 605 605 605 605 605 605 605 605 605 605 605 605 605 605 605 605 605 605 605 605 605 605 605 605 605 605 605 605 605 605 605 605 605 605 605 605 605 605 605 605 605 605 605 605 605 605 605 605 605 605 605 605 605 605 605 605 605 605 605 605 605 605 605 605 605 605 605 605 605 605 605 605 605 605 605 605 605 605 605 605 605 605 605 605 605 605 605 605 605 605 605 605 605 605 605 605 605 605 605 605 605 605 605 605 605 605 605 605 605 605 605 605 605 605 605 605 605 605 605 605 605 605 605 605 605 605 605 605 605 605 605 605 605 605 605 605 605 605 605 605 605 605 605 605 605 605 605 605 605 605 605 605 605 605 605 605 605 605 605 605 605 605 605 605 605 605 605 605 605 605 605 605 605 605 605 605 605 605 605 605 605 605 605 605 605 605 605 605 605 605 605 605 605 605 605 605 605 605 605 605 605 605 605 605 605 605 605 605 605 605 605 605 605 605 605 605 605 605 605 605 605 605 605 605 605 605 605 605 605 605 605 605 605 605 605 605 605 605 605 605 605 605 605 605 605 605 605 605 605 605 605 605 605 605 605 605 605 605 605 605 605 605 605 605 605 605 605 605 605 605 605 605 605 605 605 605 605 605 605 605 605 605 605 605 605 605 605 605 605 605 605 605 605 605 605 605 605 605 605 605 605 605 605 605 605 605 605 605 605 605 605 605 605 605 605 605 605 605 605 605 605 605 605 605 605 605 605 605 605 605 605 605 605 605 605 605 605 605 605 605 605 605 605 605 605 605 605 605 605 605 605 605 605 605 605 605 605 605 605 605 605 605 605 605 605 605 605 605 605 605 605 605 605 605 605 605 605 605 605 605 605 605 605 605 605 605 605 605 605 605 605 605 605 605 605 605 605 605 605 605 605 605 605 605 605 605 605 605 605 605 605 605 605 605 605 605 605 605 605 605 605 605 605 605 605 605 605 605 605 605 605 605 605 605 605 605 605 605 605 605 605 605 605 605 605 605 605 605 605 605 605 605 605 605 605 605 605 605 605 605 605 605 605 605 605 605 605 605 605 605 605 605 605 605 605 605 605 605 605 605 605 605 605 605 605 605 605 605 605 605 605 605 605 605 605 605 605 605 605 605 605 605 605 605 605 605 605 605 605 605 605 605 605 605 605 605 605 605 605 605 605 605 605 605 605 605 605 605 605 605 605 605 605 605 605 605 605 605 605 605 605 605 605 605 605 605 605 605 605 605 605 605 605 605 605 605 605 605 605 605 605 605 605 605 605 605 605 605 605 605 605 605 605 605 605 605 605 605 605 605 605 605 605 605 605 605 605 605 605 605 605 605 605 605 605 605 605 605 605 605 605 605 605 605 605 605 605 605 605 605 605 605 605 605 605 605 605 605 605 605 605 605 605 605 605 605 605 605 605 605 605 605 605 605 605 605 605 605 605 605 605 605 605 605 605 605 605 605 605 605 605 605 605 605 605 605 605 605 605 605 605 605 605 605 605 605 605 605 605 605 605 605 605 605 605 605 605 605 605 605 605 605 605 605 605 605 605 605 605 605 605 605 605 605 605 605 605 605 605 605 605 605 605 605 605 605 605 605 605 605 605 605 605 605 605 605 605 605 605 605 605 605 605 605 605 605 605 605 605 605 605 605 605 605 605 605 605 605 605 605 605 605 605 605 605 605 605 605 605 605 605 605 605 605 605 605 605 605 605 605 605 605 605 605 605 605 605 605 605 605 605 605 605 605 605 605 605 605 605 605 605 605 605 605 605 605 605 605 605 605 605 605 605 605 605 605 605 605 605 605 605 605 605 605 605 605 605 605 605 605 605 605 605 605 605 605 605 605 605 605 605 605 605 605 605 605 605 605 605 605 605 605 605 605 605 605 605 605 605 605 605 605 605 605 605 605 605 605 605 605 605 605 605 605 605 605 605 605 
1896 1726 1594 1483 1388 1314 1246 1178 1095 1043 988 942 906 871 844 817 793 768 750 733 720 706 692 683 675 666 658 649 644 637 634 630 628 627 625 624 622 621 619 612 608 608 608 607 607 607 607 607 607 607 607 607 607 607 607 607 607 607 607 607 607 607 607 607 607 607 607 607 607 607 607 607 607 607 607 607 607 607 607 607 607 607 607 607 607 607 607 607 607 607 607 607 607 607 607 607 607 607 607 607 607 607 607 607 607 607 607 607 607 607 607 607 607 607 607 607 607 607 607 607 607 607 607 607 607 607 607 607 607 607 607 606 606 606 605 605 605 605 605 605 605 605 605 605 605 605 605 605 605 605 605 605 605 605 605 605 605 605 605 605 605 605 605 605 605 605 605 605 605 605 605 605 605 605 605 605 605 605 605 605 605 605 605 605 605 605 605 605 605 605 605 605 605 605 605 605 605 605 605 605 605 605 605 605 605 605 605 605 605 605 605 605 605 605 605 605 605 605 605 605 605 605 605 605 605 605 605 605 605 605 605 605 605 605 605 605 605 605 605 605 605 605 605 605 605 605 605 605 605 605 605 605 605 605 605 605 605 605 605 605 605 605 605 605 605 605 605 605 605 605 605 605 605 605 605 605 605 605 605 605 605 605 605 605 605 605 605 605 605 605 605 605 605 605 605 605 605 605 605 605 605 605 605 605 605 605 605 605 605 605 605 605 605 605 605 605 605 605 605 605 605 605 605 605 605 605 605 605 605 605 605 605 605 605 605 605 605 605 605 605 605 605 605 605 605 605 605 605 605 605 605 605 605 605 605 605 605 605 605 605 605 605 605 605 605 605 605 605 605 605 605 605 605 605 605 605 605 605 605 605 605 605 605 605 605 605 605 605 605 605 605 605 605 605 605 605 605 605 605 605 605 605 605 605 605 605 605 605 605 605 605 605 605 605 605 605 605 605 605 605 605 605 605 605 605 605 605 605 605 605 605 605 605 605 605 605 605 605 605 605 605 605 605 605 605 605 605 605 605 605 605 605 605 605 605 605 605 605 605 605 605 605 605 605 605 605 605 605 605 605 605 605 605 605 605 605 605 605 605 605 605 605 605 605 605 605 605 605 605 605 605 605 605 605 605 605 605 605 605 605 605 605 605 605 605 605 605 605 605 605 605 605 605 605 605 605 605 605 605 605 605 605 605 605 605 605 605 605 605 605 605 605 605 605 605 605 605 605 605 605 605 605 605 605 605 605 605 605 605 605 605 605 605 605 605 605 605 605 605 605 605 605 605 605 605 605 605 605 605 605 605 605 605 605 605 605 605 605 605 605 605 605 605 605 605 605 605 605 605 605 605 605 605 605 605 605 605 605 605 605 605 605 605 605 605 605 605 605 605 605 605 605 605 605 605 605 605 605 605 605 605 605 605 605 605 605 605 605 605 605 605 605 605 605 605 605 605 605 605 605 605 605 605 605 605 605 605 605 605 605 605 605 605 605 605 605 605 605 605 605 605 605 605 605 605 605 605 605 605 605 605 605 605 605 605 605 605 605 605 605 605 605 605 605 605 605 605 605 605 605 605 605 605 605 605 605 605 605 605 605 605 605 605 605 605 605 605 605 605 605 605 605 605 605 605 605 605 605 605 605 605 605 605 605 605 605 605 605 605 605 605 605 605 605 605 605 605 605 605 605 605 605 605 605 605 605 605 605 605 605 605 605 605 605 605 605 605 605 605 605 605 605 605 605 605 605 605 605 605 605 605 605 605 605 605 605 605 605 605 605 605 605 605 605 605 605 605 605 605 605 605 605 605 605 605 605 605 605 605 605 605 605 605 605 605 605 605 605 605 605 605 605 605 605 605 605 605 605 605 605 605 605 605 605 605 605 605 605 605 605 605 605 605 605 605 605 605 605 605 605 605 605 605 605 605 605 605 605 605 605 605 605 605 605 605 605 605 605 605 605 605 605 605 605 605 605 605 605 605 605 605 605 605 605 605 605 605 605 605 605 605 605 605 605 605 605 605 605 605 605 605 605 605 605 605 605 605 605 605 605 605 605 605 605 605 605 605 605 605 605 605 605 605 605 605 605 605 605 605 605 605 605 605 605 605 605 605 605 605 605 605 605 605 605 605 605 605 605 605 605 605 605 605 605 605 605 605 605 605 605 605 605 605 605 605 605 605 605 605 605 605 605 605 605 605 605 605 605 605 605 605 605 605 605 605 605 605 605 605 605 605 605 605 605 605 605 605 605 605 605 605 605 605 605 605 605 605 605 605 605 